# pound key for linewise comment
# m n // m ~ #(human), n ~ #(bikes), m<n
# x_0 y_0 
# x_1 y_1 
# ...
# x_{m+n-1} y_{m+n-1} // m lines for human coords, then n lines for bike coords
#
# example:
# 2 3
# 1 0
# 0 1
# 3 3
# 0 2
# 2 2
#
#.---->(y)
#|OPBO
#|POOO
#|OOBO
#|OOOB
#v(x)
#
# optimal:=1+3=4
#)
6 20
7 1
3 1
7 3
1 4
9 6
0 2
8 7
4 3
0 0
6 0
2 2
8 5
0 5
4 0
2 1
9 4
0 4
9 5
6 1
4 5
3 5
7 4
4 2
7 6
5 2
5 5
